\ENCODING=ISO-8859-1
\Problem name: ilog.cplex

Minimize
 obj1: x0 + x1 + x2 + x3 + x4
Subject To
 c1:        x0 + x1 + x2 + x3 + x4 >= 2
 c2:        - 0.5 x1 - 0.5 x4 + x8  = 0
 c3:        - x0 + x9  = 0
 y1,0:      y1,0 - x7  = 0
 c5:        - 0.5 x0 - 0.5 x2 + x11  = 0
 c6:        - x1 + x12  = 0
 y1,1:      y1,1 - x10  = 0
 c8:        - 0.5 x1 - 0.5 x3 + x16  = 0
 c9:        - x2 + x17  = 0
 y1,2:      y1,2 - x15  = 0
 c11:       - 0.5 x2 - 0.5 x4 + x20  = 0
 c12:       - x3 + x21  = 0
 y1,3:      y1,3 - x19  = 0
 c14:       - 0.5 x0 - 0.5 x3 + x24  = 0
 c15:       - x4 + x25  = 0
 y1,4:      y1,4 - x23  = 0
 c17:       - 0.5 y1,1 - 0.5 y1,4 + x28  = 0
 c18:       - y2,0 + x29  = 0
 y2,0:      y2,0 - x27  = 0
 c20:       x32 - 0.5 y2,1 - 0.5 y2,4  = 0
 c21:       - y3,0 + x33  = 0
 y3,0:      y3,0 - x31  = 0
 c23:       - 0.5 y1,0 - 0.5 y1,2 + x39  = 0
 c24:       - y2,1 + x40  = 0
 y2,1:      y2,1 - x38  = 0
 c26:       - 0.5 y2,0 - 0.5 y2,2 + x43  = 0
 c27:       - y3,1 + x44  = 0
 y3,1:      y3,1 - x42  = 0
 c29:       - 0.5 y1,1 - 0.5 y1,3 + x46  = 0
 c30:       - y2,2 + x47  = 0
 y2,2:      y2,2 - x45  = 0
 c32:       - 0.5 y2,1 - 0.5 y2,3 + x49  = 0
 c33:       - y3,2 + x50  = 0
 y3,2:      y3,2 - x48  = 0
 c35:       - 0.5 y1,2 - 0.5 y1,4 + x53  = 0
 c36:       - y2,3 + x54  = 0
 y2,3:      y2,3 - x52  = 0
 c38:       - 0.5 y2,2 - 0.5 y2,4 + x57  = 0
 c39:       - y3,3 + x58  = 0
 y3,3:      y3,3 - x56  = 0
 c41:       - 0.5 y1,0 - 0.5 y1,3 + x60  = 0
 c42:       - y2,4 + x61  = 0
 y2,4:      y2,4 - x59  = 0
 c44:       - 0.5 y2,0 - 0.5 y2,3 + x64  = 0
 c45:       - y3,4 + x65  = 0
 y3,4:      y3,4 - x63  = 0
 s_hull_v0: y3,0  = 1
 s_hull_v1: y3,1  = 1
 s_hull_v2: y3,2  = 1
 s_hull_v3: y3,3  = 1
 s_hull_v4: y3,4  = 1
 c52:       - x7 + x8 <= 0
 c53:       - x7 + x9 <= 0
 c54:       x66 + x67 >= 1
 c55:       - x10 + x11 <= 0
 c56:       - x10 + x12 <= 0
 c57:       x68 + x69 >= 1
 c58:       - x15 + x16 <= 0
 c59:       - x15 + x17 <= 0
 c60:       x70 + x71 >= 1
 c61:       - x19 + x20 <= 0
 c62:       - x19 + x21 <= 0
 c63:       x72 + x73 >= 1
 c64:       - x23 + x24 <= 0
 c65:       - x23 + x25 <= 0
 c66:       x74 + x75 >= 1
 c67:       - x27 + x28 <= 0
 c68:       - x27 + x29 <= 0
 c69:       x76 + x77 >= 1
 c70:       - x31 + x32 <= 0
 c71:       - x31 + x33 <= 0
 c72:       x78 + x79 >= 1
 c73:       - x38 + x39 <= 0
 c74:       - x38 + x40 <= 0
 c75:       x80 + x81 >= 1
 c76:       - x42 + x43 <= 0
 c77:       - x42 + x44 <= 0
 c78:       x82 + x83 >= 1
 c79:       - x45 + x46 <= 0
 c80:       - x45 + x47 <= 0
 c81:       x84 + x85 >= 1
 c82:       - x48 + x49 <= 0
 c83:       - x48 + x50 <= 0
 c84:       x86 + x87 >= 1
 c85:       - x52 + x53 <= 0
 c86:       - x52 + x54 <= 0
 c87:       x88 + x89 >= 1
 c88:       - x56 + x57 <= 0
 c89:       - x56 + x58 <= 0
 c90:       x90 + x91 >= 1
 c91:       - x59 + x60 <= 0
 c92:       - x59 + x61 <= 0
 c93:       x92 + x93 >= 1
 c94:       - x63 + x64 <= 0
 c95:       - x63 + x65 <= 0
 c96:       x94 + x95 >= 1
 i1:  x66 = 1 <-> x8 - x7 => 0
 i2:  x67 = 1 <-> x9 - x7 => 0
 i3:  x68 = 1 <-> x11 - x10 => 0
 i4:  x69 = 1 <-> x12 - x10 => 0
 i5:  x70 = 1 <-> x16 - x15 => 0
 i6:  x71 = 1 <-> x17 - x15 => 0
 i7:  x72 = 1 <-> x20 - x19 => 0
 i8:  x73 = 1 <-> x21 - x19 => 0
 i9:  x74 = 1 <-> x24 - x23 => 0
 i10: x75 = 1 <-> x25 - x23 => 0
 i11: x76 = 1 <-> x28 - x27 => 0
 i12: x77 = 1 <-> x29 - x27 => 0
 i13: x78 = 1 <-> x32 - x31 => 0
 i14: x79 = 1 <-> x33 - x31 => 0
 i15: x80 = 1 <-> x39 - x38 => 0
 i16: x81 = 1 <-> x40 - x38 => 0
 i17: x82 = 1 <-> x43 - x42 => 0
 i18: x83 = 1 <-> x44 - x42 => 0
 i19: x84 = 1 <-> x46 - x45 => 0
 i20: x85 = 1 <-> x47 - x45 => 0
 i21: x86 = 1 <-> x49 - x48 => 0
 i22: x87 = 1 <-> x50 - x48 => 0
 i23: x88 = 1 <-> x53 - x52 => 0
 i24: x89 = 1 <-> x54 - x52 => 0
 i25: x90 = 1 <-> x57 - x56 => 0
 i26: x91 = 1 <-> x58 - x56 => 0
 i27: x92 = 1 <-> x60 - x59 => 0
 i28: x93 = 1 <-> x61 - x59 => 0
 i29: x94 = 1 <-> x64 - x63 => 0
 i30: x95 = 1 <-> x65 - x63 => 0
Bounds
 0 <= x0 <= 1
 0 <= x1 <= 1
 0 <= x2 <= 1
 0 <= x3 <= 1
 0 <= x4 <= 1
 0 <= y1,0 <= 10
      x7 Free
      x8 Free
      x9 Free
 0 <= y1,1 <= 10
      x10 Free
      x11 Free
      x12 Free
 0 <= y1,2 <= 10
      x15 Free
      x16 Free
      x17 Free
 0 <= y1,3 <= 10
      x19 Free
      x20 Free
      x21 Free
 0 <= y1,4 <= 10
      x23 Free
      x24 Free
      x25 Free
 0 <= y2,0 <= 10
      x27 Free
      x28 Free
      x29 Free
 0 <= y3,0 <= 10
      x31 Free
      x32 Free
      x33 Free
 0 <= y2,1 <= 10
 0 <= y2,2 <= 10
 0 <= y2,3 <= 10
 0 <= y2,4 <= 10
      x38 Free
      x39 Free
      x40 Free
 0 <= y3,1 <= 10
      x42 Free
      x43 Free
      x44 Free
      x45 Free
      x46 Free
      x47 Free
 0 <= y3,2 <= 10
      x48 Free
      x49 Free
      x50 Free
      x52 Free
      x53 Free
      x54 Free
 0 <= y3,3 <= 10
      x56 Free
      x57 Free
      x58 Free
      x59 Free
      x60 Free
      x61 Free
 0 <= y3,4 <= 10
      x63 Free
      x64 Free
      x65 Free
 0 <= x66 <= 1
 0 <= x67 <= 1
 0 <= x68 <= 1
 0 <= x69 <= 1
 0 <= x70 <= 1
 0 <= x71 <= 1
 0 <= x72 <= 1
 0 <= x73 <= 1
 0 <= x74 <= 1
 0 <= x75 <= 1
 0 <= x76 <= 1
 0 <= x77 <= 1
 0 <= x78 <= 1
 0 <= x79 <= 1
 0 <= x80 <= 1
 0 <= x81 <= 1
 0 <= x82 <= 1
 0 <= x83 <= 1
 0 <= x84 <= 1
 0 <= x85 <= 1
 0 <= x86 <= 1
 0 <= x87 <= 1
 0 <= x88 <= 1
 0 <= x89 <= 1
 0 <= x90 <= 1
 0 <= x91 <= 1
 0 <= x92 <= 1
 0 <= x93 <= 1
 0 <= x94 <= 1
 0 <= x95 <= 1
Binaries
 x0  x1  x2  x3  x4  x66  x67  x68  x69  x70  x71  x72  x73  x74  x75  x76 
 x77  x78  x79  x80  x81  x82  x83  x84  x85  x86  x87  x88  x89  x90  x91 
 x92  x93  x94  x95 
End
